language Essence 1.3

letting length be 5
letting avoiding be {sequence(1,3,2)}
letting mesh be [
    [0,0,0,0],
    [0,1,0,0],
    [0,1,0,0],
    [0,0,0,0]
    ]
$ where a 1 in the mesh means that there are no values 